(set-logic ALL)
(set-option :produce-models true)
(declare-sort BoundSet 0)
(declare-sort UnboundSet 0)
(declare-fun a () UnboundSet)
(declare-fun IsNoShirt (UnboundSet) Bool)
(declare-fun IsTampering (BoundSet) Bool)
(assert (not (=> (exists ((b BoundSet)) (and (IsNoShirt a) (IsTampering b))) (exists ((d BoundSet)) (IsTampering d)))))
(check-sat)
(get-model)